c
c LOANDRA:	 an extension of Open-WBO to core-boosted linear search.
c Version:	 July 2019 2018 -- Release: 1.0
c Authors:	 Jeremias Berg, Emir Demirovic, Peter Stuckey
c We thank the developers of Open-WBO for their work
c
c Open-WBO:	 a Modular MaxSAT Solver -- based on Glucose4.1 (core version)
c Version:	 September 2018 -- Release: 2.1
c Authors:	 Ruben Martins, Vasco Manquinho, Ines Lynce
c Contributors:	 Miguel Neves, Saurabh Joshi, Norbert Manthey, Mikolas Janota
c Contact:	 open-wbo@sat.inesc-id.pt -- http://sat.inesc-id.pt/open-wbo/
c
c WARNING: for repeatability, setting FPU to use double precision
c |                                                                                                       |
c ========================================[ Problem Statistics ]===========================================
c |                                                                                                       |
c |  Problem Format:             MaxSAT                                                                   |
c |  Problem Type:           Unweighted                                                                   |
c |  Number of variables:          5190                                                                   |
c |  Number of hard clauses:      34569                                                                   |
c |  Number of soft clauses:       2438                                                                   |
c |  Number of cardinality:           0                                                                   |
c |  Number of PB :                   0                                                                   |
c |  Parse time:                   0.01 s                                                                 |
c |                                                                                                       |
c PMRES ALGORITHM WITH LINEAR SEARCH 
c PMRES LINEAR STRAT=1
c PMRES LINEAR DIVISION=1
c PMRES CORE DIVISION=0
c PMRES CORE LIMIT (-1 = no limit)=30
c PMRES RELAX BEFORE STRAT =0
c PMRES INCREMENTAL LIN DIVISION =0
c PMRES MINIM =1
c PMRES MINIM STRAT =0
c PRE hard clauses before: 37007
c PRE soft literals before: 2438
c PRE time: 0 removed weight: 1641
c PRE hard clauses after: 27447
c PRE soft literals after: 797
c Checking model
c CG best 2227 LB: 1641 at 0
o 2227
c CG GAP: 586 T 0
c CG New weight: 1 at 0
c PMRES CORE LIMIT (-1 = no limit)=30
c Core budget remaining 30
c CG GAP: 585 T 0
c LB : 1642         CS : 1            W  : 1           
c Core budget remaining 30
c CG GAP: 584 T 0
c LB : 1643         CS : 1            W  : 1           
c Core budget remaining 30
c CG GAP: 583 T 0
c LB : 1644         CS : 1            W  : 1           
c Core budget remaining 30
c CG GAP: 582 T 0
c LB : 1645         CS : 1            W  : 1           
c Core budget remaining 30
c CG GAP: 581 T 0
c LB : 1646         CS : 1            W  : 1           
c Core budget remaining 30
c CG GAP: 580 T 0
c LB : 1647         CS : 1            W  : 1           
c Core budget remaining 30
c CG GAP: 579 T 0
c LB : 1648         CS : 1            W  : 1           
c Core budget remaining 30
c CG GAP: 578 T 0
c LB : 1649         CS : 1            W  : 1           
c Core budget remaining 30
c CG GAP: 577 T 0
c LB : 1650         CS : 1            W  : 1           
c Core budget remaining 30
c CG GAP: 576 T 0
c LB : 1651         CS : 1            W  : 1           
c Core budget remaining 30
c CG GAP: 575 T 0
c LB : 1652         CS : 1            W  : 1           
c Core budget remaining 30
c CG GAP: 574 T 0
c LB : 1653         CS : 1            W  : 1           
c Core budget remaining 30
c CG GAP: 573 T 0
c LB : 1654         CS : 1            W  : 1           
c Core budget remaining 30
c CG GAP: 572 T 0
c LB : 1655         CS : 1            W  : 1           
c Core budget remaining 30
c CG GAP: 571 T 0
c LB : 1656         CS : 1            W  : 1           
c Core budget remaining 30
c CG GAP: 570 T 0
c LB : 1657         CS : 1            W  : 1           
c Core budget remaining 30
c CG GAP: 569 T 0
c LB : 1658         CS : 1            W  : 1           
c Core budget remaining 30
c CG GAP: 568 T 0
c LB : 1659         CS : 1            W  : 1           
c Core budget remaining 30
c CG GAP: 567 T 0
c LB : 1660         CS : 1            W  : 1           
c Core budget remaining 30
c CG GAP: 566 T 0
c LB : 1661         CS : 1            W  : 1           
c Core budget remaining 30
c CG GAP: 565 T 0
c LB : 1662         CS : 1            W  : 1           
c Core budget remaining 30
c CG GAP: 564 T 0
c LB : 1663         CS : 1            W  : 1           
c Core budget remaining 30
c CG GAP: 563 T 0
c LB : 1664         CS : 1            W  : 1           
c Core budget remaining 30
c CG GAP: 562 T 0
c LB : 1665         CS : 1            W  : 1           
c Core budget remaining 30
c CG GAP: 561 T 0
c LB : 1666         CS : 1            W  : 1           
c Core budget remaining 30
c CG GAP: 560 T 0
c LB : 1667         CS : 1            W  : 1           
c Core budget remaining 30
c CG GAP: 559 T 0
c LB : 1668         CS : 1            W  : 1           
c Core budget remaining 30
c CG GAP: 558 T 0
c LB : 1669         CS : 1            W  : 1           
c Core budget remaining 30
c CG GAP: 557 T 0
c LB : 1670         CS : 1            W  : 1           
c Core budget remaining 30
c CG GAP: 556 T 0
c LB : 1671         CS : 1            W  : 1           
c Core budget remaining 30
c CG GAP: 555 T 0
c LB : 1672         CS : 1            W  : 1           
c Core budget remaining 30
c CG GAP: 554 T 0
c LB : 1673         CS : 1            W  : 1           
c Core budget remaining 30
c CG GAP: 553 T 0
c LB : 1674         CS : 1            W  : 1           
c Core budget remaining 30
c CG GAP: 552 T 0
c LB : 1675         CS : 1            W  : 1           
c Core budget remaining 30
c CG GAP: 551 T 0
c LB : 1676         CS : 1            W  : 1           
c Core budget remaining 30
c CG GAP: 550 T 0
c LB : 1677         CS : 1            W  : 1           
c Core budget remaining 30
c CG GAP: 549 T 0
c LB : 1678         CS : 1            W  : 1           
c Core budget remaining 30
c CG GAP: 548 T 0
c LB : 1679         CS : 1            W  : 1           
c Core budget remaining 30
c CG GAP: 547 T 0
c LB : 1680         CS : 1            W  : 1           
c Core budget remaining 30
c CG GAP: 546 T 0
c LB : 1681         CS : 1            W  : 1           
c Core budget remaining 30
c CG GAP: 545 T 0
c LB : 1682         CS : 1            W  : 1           
c Core budget remaining 30
c CG GAP: 544 T 0
c LB : 1683         CS : 1            W  : 1           
c Core budget remaining 30
c CG GAP: 543 T 0
c LB : 1684         CS : 1            W  : 1           
c Core budget remaining 30
c CG GAP: 542 T 0
c LB : 1685         CS : 1            W  : 1           
c Core budget remaining 30
c CG GAP: 541 T 0
c LB : 1686         CS : 1            W  : 1           
c Core budget remaining 30
c CG GAP: 540 T 0
c LB : 1687         CS : 1            W  : 1           
c Core budget remaining 30
c CG GAP: 539 T 0
c LB : 1688         CS : 1            W  : 1           
c Core budget remaining 30
c CG GAP: 538 T 0
c LB : 1689         CS : 1            W  : 1           
c Core budget remaining 30
c CG GAP: 537 T 0
c LB : 1690         CS : 1            W  : 1           
c Core budget remaining 30
c CG GAP: 536 T 0
c LB : 1691         CS : 1            W  : 1           
c Core budget remaining 30
c CG GAP: 535 T 0
c LB : 1692         CS : 1            W  : 1           
c Core budget remaining 30
c CG GAP: 534 T 0
c LB : 1693         CS : 1            W  : 1           
c Core budget remaining 30
c CG GAP: 533 T 0
c LB : 1694         CS : 1            W  : 1           
c Core budget remaining 30
c CG GAP: 532 T 0
c LB : 1695         CS : 1            W  : 1           
c Core budget remaining 30
c CG GAP: 531 T 0
c LB : 1696         CS : 1            W  : 1           
c Core budget remaining 30
c CG GAP: 530 T 0
c LB : 1697         CS : 1            W  : 1           
c Core budget remaining 30
c CG GAP: 529 T 0
c LB : 1698         CS : 1            W  : 1           
c Core budget remaining 30
c CG GAP: 528 T 0
c LB : 1699         CS : 1            W  : 1           
c Core budget remaining 30
c CG GAP: 527 T 0
c LB : 1700         CS : 1            W  : 1           
c Core budget remaining 30
c CG GAP: 526 T 0
c LB : 1701         CS : 1            W  : 1           
c Core budget remaining 30
c CG GAP: 525 T 0
c LB : 1702         CS : 1            W  : 1           
c Core budget remaining 30
c CG GAP: 524 T 0
c LB : 1703         CS : 1            W  : 1           
c Core budget remaining 30
c CG GAP: 523 T 0
c LB : 1704         CS : 1            W  : 1           
c Core budget remaining 30
c CG GAP: 522 T 0
c LB : 1705         CS : 1            W  : 1           
c Core budget remaining 30
c CG GAP: 521 T 0
c LB : 1706         CS : 1            W  : 1           
c Core budget remaining 30
c CG GAP: 520 T 0
c LB : 1707         CS : 1            W  : 1           
c Core budget remaining 30
c CG GAP: 519 T 0
c LB : 1708         CS : 1            W  : 1           
c Core budget remaining 30
c CG GAP: 518 T 0
c LB : 1709         CS : 1            W  : 1           
c Core budget remaining 30
c CG GAP: 517 T 0
c LB : 1710         CS : 1            W  : 1           
c Core budget remaining 30
c CG GAP: 516 T 0
c LB : 1711         CS : 1            W  : 1           
c Core budget remaining 30
c CG GAP: 515 T 0
c LB : 1712         CS : 1            W  : 1           
c Core budget remaining 30
c CG GAP: 514 T 0
c LB : 1713         CS : 1            W  : 1           
c Core budget remaining 30
c CG GAP: 513 T 0
c LB : 1714         CS : 1            W  : 1           
c Core budget remaining 30
c CG GAP: 512 T 0
c LB : 1715         CS : 1            W  : 1           
c Core budget remaining 30
c CG GAP: 511 T 0
c LB : 1716         CS : 1            W  : 1           
c Core budget remaining 30
c CG GAP: 510 T 0
c LB : 1717         CS : 1            W  : 1           
c Core budget remaining 30
c CG GAP: 509 T 0
c LB : 1718         CS : 1            W  : 1           
c Core budget remaining 30
c CG GAP: 508 T 0
c LB : 1719         CS : 1            W  : 1           
c Core budget remaining 30
c CG GAP: 507 T 0
c LB : 1720         CS : 1            W  : 1           
c Core budget remaining 30
c CG GAP: 506 T 0
c LB : 1721         CS : 1            W  : 1           
c Core budget remaining 30
c CG GAP: 505 T 0
c LB : 1722         CS : 1            W  : 1           
c Core budget remaining 30
c CG GAP: 504 T 0
c LB : 1723         CS : 1            W  : 1           
c Core budget remaining 30
c CG GAP: 503 T 0
c LB : 1724         CS : 1            W  : 1           
c Core budget remaining 30
c CG GAP: 502 T 0
c LB : 1725         CS : 1            W  : 1           
c Core budget remaining 30
c CG GAP: 501 T 0
c LB : 1726         CS : 1            W  : 1           
c Core budget remaining 30
c CG GAP: 500 T 0
c LB : 1727         CS : 1            W  : 1           
c Core budget remaining 30
c CG GAP: 499 T 0
c LB : 1728         CS : 1            W  : 1           
c Core budget remaining 30
c CG GAP: 498 T 0
c LB : 1729         CS : 1            W  : 1           
c Core budget remaining 30
c CG GAP: 497 T 0
c LB : 1730         CS : 1            W  : 1           
c Core budget remaining 30
c CG GAP: 496 T 0
c LB : 1731         CS : 1            W  : 1           
c Core budget remaining 30
c CG GAP: 495 T 0
c LB : 1732         CS : 1            W  : 1           
c Core budget remaining 30
c CG GAP: 494 T 0
c LB : 1733         CS : 1            W  : 1           
c Core budget remaining 30
c CG GAP: 493 T 0
c LB : 1734         CS : 1            W  : 1           
c Core budget remaining 30
c CG GAP: 492 T 0
c LB : 1735         CS : 1            W  : 1           
c Core budget remaining 30
c CG GAP: 491 T 0
c LB : 1736         CS : 1            W  : 1           
c Core budget remaining 30
c CG GAP: 490 T 0
c LB : 1737         CS : 1            W  : 1           
c Core budget remaining 30
c CG GAP: 489 T 0
c LB : 1738         CS : 1            W  : 1           
c Core budget remaining 30
c CG GAP: 488 T 0
c LB : 1739         CS : 1            W  : 1           
c Core budget remaining 30
c CG GAP: 487 T 0
c LB : 1740         CS : 1            W  : 1           
c Core budget remaining 30
c CG GAP: 486 T 0
c LB : 1741         CS : 1            W  : 1           
c Core budget remaining 30
c CG GAP: 485 T 0
c LB : 1742         CS : 1            W  : 1           
c Core budget remaining 30
c CG GAP: 484 T 0
c LB : 1743         CS : 1            W  : 1           
c Core budget remaining 30
c CG GAP: 483 T 0
c LB : 1744         CS : 1            W  : 1           
c Core budget remaining 30
c CG GAP: 482 T 0
c LB : 1745         CS : 1            W  : 1           
c Core budget remaining 30
c CG GAP: 481 T 0
c LB : 1746         CS : 1            W  : 1           
c Core budget remaining 30
c CG GAP: 480 T 0
c LB : 1747         CS : 1            W  : 1           
c Core budget remaining 30
c CG GAP: 479 T 0
c LB : 1748         CS : 1            W  : 1           
c Core budget remaining 30
c CG GAP: 478 T 0
c LB : 1749         CS : 1            W  : 1           
c Core budget remaining 30
c CG GAP: 477 T 0
c LB : 1750         CS : 1            W  : 1           
c Core budget remaining 30
c CG GAP: 476 T 0
c LB : 1751         CS : 1            W  : 1           
c Core budget remaining 30
c CG GAP: 475 T 0
c LB : 1752         CS : 1            W  : 1           
c Core budget remaining 30
c CG GAP: 474 T 0
c LB : 1753         CS : 1            W  : 1           
c Core budget remaining 30
c CG GAP: 473 T 0
c LB : 1754         CS : 1            W  : 1           
c Core budget remaining 30
c CG GAP: 472 T 0
c LB : 1755         CS : 1            W  : 1           
c Core budget remaining 30
c CG GAP: 471 T 0
c LB : 1756         CS : 1            W  : 1           
c Core budget remaining 30
c CG GAP: 470 T 0
c LB : 1757         CS : 1            W  : 1           
c Core budget remaining 30
c CG GAP: 469 T 0
c LB : 1758         CS : 1            W  : 1           
c Core budget remaining 30
c CG GAP: 468 T 0
c LB : 1759         CS : 1            W  : 1           
c Core budget remaining 30
c CG GAP: 467 T 0
c LB : 1760         CS : 1            W  : 1           
c Core budget remaining 30
c CG GAP: 466 T 0
c LB : 1761         CS : 1            W  : 1           
c Core budget remaining 30
c CG GAP: 465 T 0
c LB : 1762         CS : 1            W  : 1           
c Core budget remaining 30
c CG GAP: 464 T 0
c LB : 1763         CS : 1            W  : 1           
c Core budget remaining 30
c CG GAP: 463 T 0
c LB : 1764         CS : 1            W  : 1           
c Core budget remaining 30
c CG GAP: 462 T 0
c LB : 1765         CS : 1            W  : 1           
c Core budget remaining 30
c CG GAP: 461 T 0
c LB : 1766         CS : 1            W  : 1           
c Core budget remaining 30
c CG GAP: 460 T 0
c LB : 1767         CS : 1            W  : 1           
c Core budget remaining 30
c CG GAP: 459 T 0
c LB : 1768         CS : 1            W  : 1           
c Core budget remaining 30
c CG GAP: 458 T 0
c LB : 1769         CS : 1            W  : 1           
c Core budget remaining 30
c CG GAP: 457 T 0
c LB : 1770         CS : 1            W  : 1           
c Core budget remaining 30
c CG GAP: 456 T 0
c LB : 1771         CS : 1            W  : 1           
c Core budget remaining 30
c CG GAP: 455 T 0
c LB : 1772         CS : 1            W  : 1           
c Core budget remaining 30
c CG GAP: 454 T 0
c LB : 1773         CS : 1            W  : 1           
c Core budget remaining 30
c CG GAP: 453 T 0
c LB : 1774         CS : 1            W  : 1           
c Core budget remaining 30
c CG GAP: 452 T 0
c LB : 1775         CS : 1            W  : 1           
c Core budget remaining 30
c CG GAP: 451 T 0
c LB : 1776         CS : 1            W  : 1           
c Core budget remaining 30
c CG GAP: 450 T 0
c LB : 1777         CS : 1            W  : 1           
c Core budget remaining 30
c CG GAP: 449 T 0
c LB : 1778         CS : 1            W  : 1           
c Core budget remaining 30
c CG GAP: 448 T 0
c LB : 1779         CS : 1            W  : 1           
c Core budget remaining 30
c CG GAP: 447 T 0
c LB : 1780         CS : 1            W  : 1           
c Core budget remaining 30
c CG GAP: 446 T 0
c LB : 1781         CS : 1            W  : 1           
c Core budget remaining 30
c CG GAP: 445 T 0
c LB : 1782         CS : 1            W  : 1           
c Core budget remaining 30
c CG GAP: 444 T 0
c LB : 1783         CS : 1            W  : 1           
c Core budget remaining 30
c CG GAP: 443 T 0
c LB : 1784         CS : 1            W  : 1           
c Core budget remaining 30
c CG GAP: 442 T 0
c LB : 1785         CS : 1            W  : 1           
c Core budget remaining 30
c CG GAP: 441 T 0
c LB : 1786         CS : 1            W  : 1           
c Core budget remaining 30
c CG GAP: 440 T 0
c LB : 1787         CS : 1            W  : 1           
c Core budget remaining 30
c CG GAP: 439 T 0
c LB : 1788         CS : 1            W  : 1           
c Core budget remaining 30
c CG GAP: 438 T 0
c LB : 1789         CS : 1            W  : 1           
c Core budget remaining 30
c CG GAP: 437 T 0
c LB : 1790         CS : 1            W  : 1           
c Core budget remaining 30
c CG GAP: 436 T 0
c LB : 1791         CS : 1            W  : 1           
c Core budget remaining 30
c CG GAP: 435 T 0
c LB : 1792         CS : 1            W  : 1           
c Core budget remaining 30
c CG GAP: 434 T 0
c LB : 1793         CS : 1            W  : 1           
c Core budget remaining 30
c CG GAP: 433 T 0
c LB : 1794         CS : 1            W  : 1           
c Core budget remaining 30
c CG GAP: 432 T 0
c LB : 1795         CS : 1            W  : 1           
c Core budget remaining 30
c CG GAP: 431 T 0
c LB : 1796         CS : 1            W  : 1           
c Core budget remaining 30
c CG GAP: 430 T 0
c LB : 1797         CS : 1            W  : 1           
c Core budget remaining 30
c CG GAP: 429 T 0
c LB : 1798         CS : 1            W  : 1           
c Core budget remaining 30
c CG GAP: 428 T 0
c LB : 1799         CS : 1            W  : 1           
c Core budget remaining 30
c CG GAP: 427 T 0
c LB : 1800         CS : 1            W  : 1           
c Core budget remaining 30
c CG GAP: 426 T 0
c LB : 1801         CS : 1            W  : 1           
c Core budget remaining 30
c CG GAP: 425 T 0
c LB : 1802         CS : 1            W  : 1           
c Core budget remaining 30
c CG GAP: 424 T 0
c LB : 1803         CS : 1            W  : 1           
c Core budget remaining 30
c CG GAP: 423 T 0
c LB : 1804         CS : 1            W  : 1           
c Core budget remaining 30
c CG GAP: 422 T 0
c LB : 1805         CS : 1            W  : 1           
c Core budget remaining 30
c CG GAP: 421 T 0
c LB : 1806         CS : 1            W  : 1           
c Core budget remaining 30
c CG GAP: 420 T 0
c LB : 1807         CS : 1            W  : 1           
c Core budget remaining 30
c CG GAP: 419 T 0
c LB : 1808         CS : 1            W  : 1           
c Core budget remaining 30
c CG GAP: 418 T 0
c LB : 1809         CS : 1            W  : 1           
c Core budget remaining 30
c CG GAP: 417 T 0
c LB : 1810         CS : 1            W  : 1           
c Core budget remaining 30
c CG GAP: 416 T 0
c LB : 1811         CS : 1            W  : 1           
c Core budget remaining 30
c CG GAP: 415 T 0
c LB : 1812         CS : 1            W  : 1           
c Core budget remaining 30
c CG GAP: 414 T 0
c LB : 1813         CS : 1            W  : 1           
c Core budget remaining 30
c CG GAP: 413 T 0
c LB : 1814         CS : 1            W  : 1           
c Core budget remaining 30
c CG GAP: 412 T 0
c LB : 1815         CS : 1            W  : 1           
c Core budget remaining 30
c CG GAP: 411 T 0
c LB : 1816         CS : 1            W  : 1           
c Core budget remaining 30
c CG GAP: 410 T 0
c LB : 1817         CS : 1            W  : 1           
c Core budget remaining 30
c CG GAP: 409 T 0
c LB : 1818         CS : 1            W  : 1           
c Core budget remaining 30
c CG GAP: 408 T 0
c LB : 1819         CS : 1            W  : 1           
c Core budget remaining 30
c CG GAP: 407 T 0
c LB : 1820         CS : 1            W  : 1           
c Core budget remaining 30
c CG GAP: 406 T 0
c LB : 1821         CS : 1            W  : 1           
c Core budget remaining 30
c CG GAP: 405 T 0
c LB : 1822         CS : 1            W  : 1           
c Core budget remaining 30
c CG GAP: 404 T 0
c LB : 1823         CS : 1            W  : 1           
c Core budget remaining 30
c CG GAP: 403 T 0
c LB : 1824         CS : 1            W  : 1           
c Core budget remaining 30
c CG GAP: 402 T 0
c LB : 1825         CS : 1            W  : 1           
c Core budget remaining 30
c CG GAP: 401 T 0
c LB : 1826         CS : 1            W  : 1           
c Core budget remaining 30
c CG GAP: 400 T 0
c LB : 1827         CS : 1            W  : 1           
c Core budget remaining 30
c CG GAP: 399 T 0
c LB : 1828         CS : 1            W  : 1           
c Core budget remaining 30
c CG GAP: 398 T 0
c LB : 1829         CS : 1            W  : 1           
c Core budget remaining 30
c CG GAP: 397 T 0
c LB : 1830         CS : 1            W  : 1           
c Core budget remaining 30
c CG GAP: 396 T 0
c LB : 1831         CS : 1            W  : 1           
c Core budget remaining 30
c CG GAP: 395 T 0
c LB : 1832         CS : 1            W  : 1           
c Core budget remaining 30
c CG GAP: 394 T 0
c LB : 1833         CS : 1            W  : 1           
c Core budget remaining 30
c CG GAP: 393 T 0
c LB : 1834         CS : 1            W  : 1           
c Core budget remaining 30
c CG GAP: 392 T 0
c LB : 1835         CS : 1            W  : 1           
c Core budget remaining 30
c CG GAP: 391 T 0
c LB : 1836         CS : 1            W  : 1           
c Core budget remaining 30
c CG GAP: 390 T 0
c LB : 1837         CS : 1            W  : 1           
c Core budget remaining 30
c CG GAP: 389 T 0
c LB : 1838         CS : 1            W  : 1           
c Core budget remaining 30
c CG GAP: 388 T 0
c LB : 1839         CS : 1            W  : 1           
c Core budget remaining 30
c CG GAP: 387 T 0
c LB : 1840         CS : 1            W  : 1           
c Core budget remaining 30
c CG GAP: 386 T 0
c LB : 1841         CS : 1            W  : 1           
c Core budget remaining 30
c CG GAP: 385 T 0
c LB : 1842         CS : 1            W  : 1           
c Core budget remaining 30
c CG GAP: 384 T 0
c LB : 1843         CS : 1            W  : 1           
c Core budget remaining 30
c CG GAP: 383 T 0
c LB : 1844         CS : 1            W  : 1           
c Core budget remaining 30
c CG GAP: 382 T 0
c LB : 1845         CS : 1            W  : 1           
c Core budget remaining 30
c CG GAP: 381 T 0
c LB : 1846         CS : 1            W  : 1           
c Core budget remaining 30
c CG GAP: 380 T 0
c LB : 1847         CS : 1            W  : 1           
c Core budget remaining 30
c CG GAP: 379 T 0
c LB : 1848         CS : 1            W  : 1           
c Core budget remaining 30
c CG GAP: 378 T 0
c LB : 1849         CS : 1            W  : 1           
c Core budget remaining 30
c CG GAP: 377 T 0
c LB : 1850         CS : 1            W  : 1           
c Core budget remaining 30
c CG GAP: 376 T 0
c LB : 1851         CS : 1            W  : 1           
c Core budget remaining 30
c CG GAP: 375 T 0
c LB : 1852         CS : 1            W  : 1           
c Core budget remaining 30
c CG GAP: 374 T 0
c LB : 1853         CS : 1            W  : 1           
c Core budget remaining 30
c CG GAP: 373 T 0
c LB : 1854         CS : 1            W  : 1           
c Core budget remaining 30
c CG GAP: 372 T 0
c LB : 1855         CS : 1            W  : 1           
c Core budget remaining 30
c CG GAP: 371 T 0
c LB : 1856         CS : 1            W  : 1           
c Core budget remaining 30
c CG GAP: 370 T 0
c LB : 1857         CS : 1            W  : 1           
c Core budget remaining 30
c CG GAP: 369 T 0
c LB : 1858         CS : 1            W  : 1           
c Core budget remaining 30
c CG GAP: 368 T 0
c LB : 1859         CS : 1            W  : 1           
c Core budget remaining 30
c CG GAP: 367 T 0
c LB : 1860         CS : 1            W  : 1           
c Core budget remaining 30
c CG GAP: 366 T 0
c LB : 1861         CS : 1            W  : 1           
c Core budget remaining 30
c CG GAP: 365 T 0
c LB : 1862         CS : 1            W  : 1           
c Core budget remaining 30
c CG GAP: 364 T 0
c LB : 1863         CS : 1            W  : 1           
c Core budget remaining 30
c CG GAP: 363 T 0
c LB : 1864         CS : 1            W  : 1           
c Core budget remaining 30
c CG GAP: 362 T 0
c LB : 1865         CS : 1            W  : 1           
c Core budget remaining 30
c CG GAP: 361 T 0
c LB : 1866         CS : 1            W  : 1           
c Core budget remaining 30
c CG GAP: 360 T 0
c LB : 1867         CS : 1            W  : 1           
c Core budget remaining 30
c CG GAP: 359 T 0
c LB : 1868         CS : 1            W  : 1           
c Core budget remaining 30
c CG GAP: 358 T 0
c LB : 1869         CS : 1            W  : 1           
c Core budget remaining 30
c CG GAP: 357 T 0
c LB : 1870         CS : 1            W  : 1           
c Core budget remaining 30
c CG GAP: 356 T 0
c LB : 1871         CS : 1            W  : 1           
c Core budget remaining 30
c CG GAP: 355 T 0
c LB : 1872         CS : 1            W  : 1           
c Core budget remaining 30
c CG GAP: 354 T 0
c LB : 1873         CS : 1            W  : 1           
c Core budget remaining 30
c CG GAP: 353 T 0
c LB : 1874         CS : 1            W  : 1           
c Core budget remaining 30
c CG GAP: 352 T 0
c LB : 1875         CS : 1            W  : 1           
c Core budget remaining 30
c CG GAP: 351 T 0
c LB : 1876         CS : 1            W  : 1           
c Core budget remaining 30
c CG GAP: 350 T 0
c LB : 1877         CS : 1            W  : 1           
c Core budget remaining 30
c CG GAP: 349 T 0
c LB : 1878         CS : 1            W  : 1           
c Core budget remaining 30
c CG GAP: 348 T 0
c LB : 1879         CS : 1            W  : 1           
c Core budget remaining 30
c CG GAP: 347 T 0
c LB : 1880         CS : 1            W  : 1           
c Core budget remaining 30
c CG GAP: 346 T 0
c LB : 1881         CS : 1            W  : 1           
c Core budget remaining 30
c CG GAP: 345 T 0
c LB : 1882         CS : 1            W  : 1           
c Core budget remaining 30
c CG GAP: 344 T 0
c LB : 1883         CS : 1            W  : 1           
c Core budget remaining 30
c CG GAP: 343 T 0
c LB : 1884         CS : 1            W  : 1           
c Core budget remaining 30
c CG GAP: 342 T 0
c LB : 1885         CS : 1            W  : 1           
c Core budget remaining 30
c CG GAP: 341 T 0
c LB : 1886         CS : 1            W  : 1           
c Core budget remaining 30
c CG GAP: 340 T 0
c LB : 1887         CS : 1            W  : 1           
c Core budget remaining 30
c CG GAP: 339 T 0
c LB : 1888         CS : 1            W  : 1           
c Core budget remaining 30
c CG GAP: 338 T 0
c LB : 1889         CS : 1            W  : 1           
c Core budget remaining 30
c CG GAP: 337 T 0
c LB : 1890         CS : 1            W  : 1           
c Core budget remaining 30
c CG GAP: 336 T 0
c LB : 1891         CS : 1            W  : 1           
c Core budget remaining 30
c CG GAP: 335 T 0
c LB : 1892         CS : 1            W  : 1           
c Core budget remaining 30
c CG GAP: 334 T 0
c LB : 1893         CS : 1            W  : 1           
c Core budget remaining 30
c CG GAP: 333 T 0
c LB : 1894         CS : 1            W  : 1           
c Core budget remaining 30
c CG GAP: 332 T 0
c LB : 1895         CS : 1            W  : 1           
c Core budget remaining 30
c CG GAP: 331 T 0
c LB : 1896         CS : 1            W  : 1           
c Core budget remaining 30
c CG GAP: 330 T 0
c LB : 1897         CS : 1            W  : 1           
c Core budget remaining 30
c CG GAP: 329 T 0
c LB : 1898         CS : 1            W  : 1           
c Core budget remaining 30
c CG GAP: 328 T 0
c LB : 1899         CS : 1            W  : 1           
c Core budget remaining 30
c CG GAP: 327 T 0
c LB : 1900         CS : 1            W  : 1           
c Core budget remaining 30
c CG GAP: 326 T 0
c LB : 1901         CS : 1            W  : 1           
c Core budget remaining 30
c CG GAP: 325 T 0
c LB : 1902         CS : 1            W  : 1           
c Core budget remaining 30
c CG GAP: 324 T 0
c LB : 1903         CS : 1            W  : 1           
c Core budget remaining 30
c CG GAP: 323 T 0
c LB : 1904         CS : 1            W  : 1           
c Core budget remaining 30
c CG GAP: 322 T 0
c LB : 1905         CS : 1            W  : 1           
c Core budget remaining 30
c CG GAP: 321 T 0
c LB : 1906         CS : 1            W  : 1           
c Core budget remaining 30
c CG GAP: 320 T 0
c LB : 1907         CS : 1            W  : 1           
c Core budget remaining 30
c CG GAP: 319 T 0
c LB : 1908         CS : 1            W  : 1           
c Core budget remaining 30
c CG GAP: 318 T 0
c LB : 1909         CS : 1            W  : 1           
c Core budget remaining 30
c CG GAP: 317 T 0
c LB : 1910         CS : 1            W  : 1           
c Core budget remaining 30
c CG GAP: 316 T 0
c LB : 1911         CS : 1            W  : 1           
c Core budget remaining 30
c CG GAP: 315 T 0
c LB : 1912         CS : 1            W  : 1           
c Core budget remaining 30
c CG GAP: 314 T 0
c LB : 1913         CS : 1            W  : 1           
c Core budget remaining 30
c CG GAP: 313 T 0
c LB : 1914         CS : 1            W  : 1           
c Core budget remaining 30
c CG GAP: 312 T 0
c LB : 1915         CS : 1            W  : 1           
c Core budget remaining 30
c CG GAP: 311 T 0
c LB : 1916         CS : 1            W  : 1           
c Core budget remaining 30
c CG GAP: 310 T 0
c LB : 1917         CS : 1            W  : 1           
c Core budget remaining 30
c CG GAP: 309 T 0
c LB : 1918         CS : 1            W  : 1           
c Core budget remaining 30
c CG GAP: 308 T 0
c LB : 1919         CS : 1            W  : 1           
c Core budget remaining 30
c CG GAP: 307 T 0
c LB : 1920         CS : 1            W  : 1           
c Core budget remaining 30
c CG GAP: 306 T 0
c LB : 1921         CS : 1            W  : 1           
c Core budget remaining 30
c CG GAP: 305 T 0
c LB : 1922         CS : 1            W  : 1           
c Core budget remaining 30
c CG GAP: 304 T 0
c LB : 1923         CS : 1            W  : 1           
c Core budget remaining 30
c CG GAP: 303 T 0
c LB : 1924         CS : 1            W  : 1           
c Core budget remaining 30
c CG GAP: 302 T 0
c LB : 1925         CS : 1            W  : 1           
c Core budget remaining 30
c CG GAP: 301 T 0
c LB : 1926         CS : 1            W  : 1           
c Core budget remaining 30
c CG GAP: 300 T 0
c LB : 1927         CS : 1            W  : 1           
c Core budget remaining 30
c CG GAP: 299 T 0
c LB : 1928         CS : 1            W  : 1           
c Core budget remaining 30
c CG GAP: 298 T 0
c LB : 1929         CS : 1            W  : 1           
c Core budget remaining 30
c CG GAP: 297 T 0
c LB : 1930         CS : 1            W  : 1           
c Core budget remaining 30
c CG GAP: 296 T 0
c LB : 1931         CS : 1            W  : 1           
c Core budget remaining 30
c CG GAP: 295 T 0
c LB : 1932         CS : 1            W  : 1           
c Core budget remaining 30
c CG GAP: 294 T 0
c LB : 1933         CS : 1            W  : 1           
c Core budget remaining 30
c CG GAP: 293 T 0
c LB : 1934         CS : 1            W  : 1           
c Core budget remaining 30
c CG GAP: 292 T 0
c LB : 1935         CS : 1            W  : 1           
c Core budget remaining 30
c CG GAP: 291 T 0
c LB : 1936         CS : 1            W  : 1           
c Core budget remaining 30
c CG GAP: 290 T 0
c LB : 1937         CS : 1            W  : 1           
c Core budget remaining 30
c CG GAP: 289 T 0
c LB : 1938         CS : 1            W  : 1           
c Core budget remaining 30
c CG GAP: 288 T 0
c LB : 1939         CS : 1            W  : 1           
c Core budget remaining 30
c CG GAP: 287 T 0
c LB : 1940         CS : 1            W  : 1           
c Core budget remaining 30
c CG GAP: 286 T 0
c LB : 1941         CS : 1            W  : 1           
c Core budget remaining 30
c CG GAP: 285 T 0
c LB : 1942         CS : 1            W  : 1           
c Core budget remaining 30
c CG GAP: 284 T 0
c LB : 1943         CS : 1            W  : 1           
c Core budget remaining 30
c CG GAP: 283 T 0
c LB : 1944         CS : 1            W  : 1           
c Core budget remaining 30
c CG GAP: 282 T 0
c LB : 1945         CS : 1            W  : 1           
c Core budget remaining 30
c CG GAP: 281 T 0
c LB : 1946         CS : 1            W  : 1           
c Core budget remaining 30
c CG GAP: 280 T 0
c LB : 1947         CS : 1            W  : 1           
c Core budget remaining 30
c CG GAP: 279 T 0
c LB : 1948         CS : 1            W  : 1           
c Core budget remaining 30
c CG GAP: 278 T 0
c LB : 1949         CS : 1            W  : 1           
c Core budget remaining 30
c CG GAP: 277 T 0
c LB : 1950         CS : 1            W  : 1           
c Core budget remaining 30
c CG GAP: 276 T 0
c LB : 1951         CS : 1            W  : 1           
c Core budget remaining 30
c SAT-During core guided phase at 0
c Checking model
c CG best 1951 LB: 1951 at 0
o 1951
c CG GAP: 0 T 0
c LB = UB
c Reconstructing in print answer
c Reconstruction time: 0
c new cost: 1951
s OPTIMUM FOUND
v 000101000010001000010100001010111011011111101110110111111011101101110110111011011101101111110111111011101101110110111111011111101110110111011011101101110110111011011101101110110111011011101101110110111011011111101110110111011011101101110110111111011101101110110111011011111101110110111011011111101111110111011011101101111110111011011101101110110111111011101101110110111011011101101100110110011001010101101110110111011011101100110110111011011101101111110111011011111101110110111011011101101110110111011011111101110110110011001101101110010101011011101101110110111011011100001010110111011011101101110110111011011100001010110111011001101101110110111011011101101110110111011011101101110110111011011101101110110111011011101101110110110000000000001000000100000010000001000000101011011000001000000100000000000000000000100000010000001000000100000000000001000000000000010110001000000000001010000001000010100000000000000000110110001010000001010000100000010000000000000101000010100001000000100000000000001000110110000010000001000000100000010000000000000000000010000001000000100000000000001000100000001000000010000000100000001000000010000000100000001000000010000000100000001000000010000000100000001000000010000000100000001000000010000000100000001000000010000000100000001000000010000000100000001000000010000000100000001000000010000000100000001000000010000000100000001000000010000000100000001000000010000000100000001000000010000000100000001000000010000000100000001000000010000000100000001000000001000000010000000100000001000000010000000100000001000000010000000100000001000010000000000100001000000000010000000100000001000000010000000100001000000000010000000001000001000000010000000100000001000000010000000100000001000000010000000100000001000000010000000100000001000000010000000100000001000000010000000100000001000000010000000100000001000000010000000100000001000000010000000100000001000000010000000000010000000100000001000000010000000100000001000100000000000100000001000000010000000100000001000000010000000100000001000000010000000100000001000000010100000000000001000000010000000100000001000000010000000100001000000000010000000100010000000000010000000100000001000100000001000000000001000000010000000100001000000000010000000100000001000000010000000100000001000000010000000100000001000000010000000110111100110111110110111100100100100100100100100100100100100100100100100100100100100100100100100100100100100100100100100100100100100100100100100100100100100100100100100100100110110110110110110110110110110110110110110110110110110110110110110110110110110110110110110110110110110110110110110110110110110110110110110110110110110111111111111111111110111111111111111111111111111111111111111111111111111111111111111111110111111111110110111111111111111111111111111111111111111111111111111111111111111111111111111111111111111111111111111111111111111111111111111111111111111111111111111111111111111111111111111111111111111111111111111111111111111111111111111111111111111111111111111111111111111111111111111111111111111111111111111111111111111111111111111111111111111111111111111111111111111111111111111111111111111111111111111111111111111111111111111111111111111111111111111111111111111111111111111111111111111111111111111111111111111111111111111111111111111111111111111111111111111111111111111111111111111111111111111111111111111111111111111111111111111111111111111111111111111111111111111111111111111111111111111111111111111111111111111111111111111111111111111111111111111111111111111111111111111111111111111111111111111111111111111111111000000000000000000000000000000000000000000000000000000000000000000000000000000000000000000000000000000000000000000000000000000000000000000000000000000000000000000000000000000000000000000000000000000000000000000000000000000000000000000000000000000000000000000000000000000000000000000000000000000000000000000000000000000000000000000000000000000000000000000000000000000000000000000000000000000000000000000000000000000000000000000000000000000000000000000000000000000001111111111111111111111100000000000000000000000000000000000000000000000000000000000000000000000000000000000000000000000000000000000000000000000000000000000000000000000000000000000000000000000000000000000000000000000000000000000000000000000000000000000000000000000000000000000000000000000000000000000000000000000000000000000000000000000000000000000000000000000000000000000000000000000000000000000000000000000000000000000000000000000000000000000000000000000000000000000000000000000000000000000000000000000000000000000000000000000000000000000000000000000000000000000000000000000000000000000000000000000000000000000000000000000000000000000000000000000000000000000000000000000000000000000000000000000000000000000000000000000000000000000000000000000000000000000000000000000000000000000000000000000000000000000000000000000000000000000000000000000000000000000000000000000000000000000000000000000000000000000000000000000000000000000000000000000000000000000000000000000000000000000000000000000000000000000000000000000000000000000000000000000000000000000000000000000000000000000000000000000000000000000000000000000000000000000000000000000000000000000000000000000000000000000000000000000000000000000000000000000000000000000000000000
